50 50
   1   -1   39    8    8   30   24   -1   40    7   -1    5   39    8    4   -1   36   -1   -1   25   10   -1   40   13   27   21   -1   -1    0   24   25    4   -1   -1   49   -1   -1   13   14   36   -1   -1   16   -1   -1   18   -1   -1   -1   21 
   0    1   30   38   39   42    5   23   -1   -1   -1   23   -1   16   -1   -1   -1   -1   -1   45   -1   -1    3   26    6   46   -1    6   -1   19   -1   -1   -1   42   49   24   -1   11   -1   -1   -1   -1   -1   -1   -1   49   -1   35   -1   -1 
   0    0    1   38   -1   -1   -1   42   -1   38    5   -1   -1   10   -1   22   47   21   -1   -1   41   -1   27   -1   12   -1   -1   -1   -1   -1   43   32   -1   38   -1   -1   -1    5   -1    0   -1   21   36   20   -1   -1   -1   -1   -1   14 
   0    0    0    1   25   21   -1   -1   -1   28   -1   23   -1   32   -1   48   -1   24   -1   26    0   -1   35    4   13   26   13   -1   35   -1   -1    1   -1    3   -1   -1   -1   25   -1   45   15   -1   10   -1   -1   47   -1   17    4   -1 
   0    0    0    0    1   -1   -1   -1   -1   -1   -1   26   -1   11   -1   -1    7   -1   19   -1   -1   -1   -1   19   -1   30   47    1   43   -1   36   -1   27   29    2   16   -1   -1   -1   -1   -1   -1    5   -1   35   -1   -1   22   33   -1 
   0    0    0    0    0    1   10   -1   47   16   43    5   -1   -1    0   -1   -1   38   38   28   -1   48   -1   -1   44    5   -1   -1   -1   18   -1   -1   -1   24    6   25   -1   48   48   17   -1   16   17   -1   -1   -1   38   -1   -1   40 
   0    0    0    0    0    0    1   24   -1   -1   -1   13   -1    8   -1   -1   20   -1   44   22   35   30   -1   19    4   -1   -1   -1   -1   31   -1    6   -1   -1    4   -1   -1   -1   -1   29   -1   12   -1   -1   -1   10   -1   -1   44   13 
   0    0    0    0    0    0    0    1   -1   17   -1   -1   37   -1   -1   -1   -1   48   17   -1   -1    2   49   49   -1   -1   46   -1   -1   10   -1   -1   -1   37   -1   21   -1   -1   -1   -1   -1   25   -1   -1    0   -1   47    0   -1   -1 
   0    0    0    0    0    0    0    0    1   13   39   45   49   -1   26   -1   35   16   15   42   -1   42   46   -1   -1   45   14   -1   -1   48   32   27    6   29   38   12   -1   30   -1   -1   -1   -1    8   23   11   18   -1    2   -1    9 
   0    0    0    0    0    0    0    0    0    1   -1   -1   45   -1   -1   -1   24   38    1   -1   -1   18   -1   12   -1   44   -1   -1   -1   37   36   30   -1   42   12   -1   27   -1   -1   -1   34   -1   20   -1   -1   28    4   21   -1   -1 
   0    0    0    0    0    0    0    0    0    0    1   23   -1   27    3   -1   39   21   -1   10   27   37   -1   -1   44   34   41   -1   30    9   35   35   -1   45    9   -1   18   32   -1   -1   38   -1   -1   48   -1   -1   29   21   -1   41 
   0    0    0    0    0    0    0    0    0    0    0    1   -1   -1   -1   -1   44   -1   32   -1   -1   15   -1   -1   -1   -1   14   -1   -1   24   13   -1   -1   -1   -1   -1   -1   41   -1   -1   -1   30   -1   -1   -1   30   -1   -1   -1   19 
   0    0    0    0    0    0    0    0    0    0    0    0    1   -1   -1    0   -1   18   44   10   -1   -1   -1   -1   13   30   31   40   -1   -1   -1   -1    1   -1   -1   -1   39   -1   -1   -1   -1   34   39   29   -1   -1   46   42   41   -1 
   0    0    0    0    0    0    0    0    0    0    0    0    0    1    9   37   -1   11   -1   -1   20   48   21    6   -1   -1   -1   45   42   23   18    9   39   -1   24   47   40   -1   -1   -1   -1   -1   34   -1   -1   -1   25    9   43   43 
   0    0    0    0    0    0    0    0    0    0    0    0    0    0    1   -1   31   13   17   10   49   34   -1    8   42   -1   42   48   -1   13    9   -1   47   -1   49   33   -1   -1   -1   -1    0   42   24   -1   -1   -1   -1   45   -1   -1 
   0    0    0    0    0    0    0    0    0    0    0    0    0    0    0    1   35   -1   -1   -1   -1   26   -1    6    1   45   -1   -1   38   36   -1   -1   35   43   -1   49   -1   46   -1   -1   -1   -1    8   -1    0   -1   -1   -1   -1   -1 
   0    0    0    0    0    0    0    0    0    0    0    0    0    0    0    0    1   16   -1   33   19   37   21    8   -1   23   -1    0   31   -1   -1   -1   18   11   -1   -1   17   -1   -1    0   -1   -1   25   -1   -1   -1    8    2   13   -1 
   0    0    0    0    0    0    0    0    0    0    0    0    0    0    0    0    0    1   16   -1   37   39    0   -1   31   -1   38   26   10   -1   -1   -1   -1   23   47   32    3   -1   31   45   -1   39   28   -1   14   17   29    8   46   28 
   0    0    0    0    0    0    0    0    0    0    0    0    0    0    0    0    0    0    1   22   -1   27   12   -1    1   -1   48   -1   34   -1   23   11   -1   -1   10    0   -1   -1   14   29    1   -1   -1   35   -1   20   -1   42   20   -1 
   0    0    0    0    0    0    0    0    0    0    0    0    0    0    0    0    0    0    0    1   -1   28   34   31   -1   25   -1   -1   -1   -1   33    0   14   19   -1   -1    4   19   -1   26   38   -1   -1    7   -1   -1   40   46   11    0 
   0    0    0    0    0    0    0    0    0    0    0    0    0    0    0    0    0    0    0    0    0    5   20   15   25   35   -1   27   10   -1   36    8   46   -1   -1   -1    7   49   48   -1   12   -1   15   45   -1   -1   -1   -1   -1   -1 
   0    0    0    0    0    0    0    0    0    0    0    0    0    0    0    0    0    0    0    0    0    0   -1   10   -1   -1   45    8   -1   -1   -1   22   -1   15    5   16   -1   -1   -1   -1   32   -1   -1   -1   43   49    7   44   17    1 
   0    0    0    0    0    0    0    0    0    0    0    0    0    0    0    0    0    0    0    0    0    0    0   -1   -1   45   24    0    1   13   -1   -1   45   23    3   12   -1   -1   45   42   -1   -1   -1   30   -1   43   30   26   -1   -1 
   0    0    0    0    0    0    0    0    0    0    0    0    0    0    0    0    0    0    0    0    0    0    0    0   -1   -1   38   44   14    7   -1   22   20   15    6   49   10   22   -1    0   -1   32   30   -1    6   -1   36   -1   -1    9 
   0    0    0    0    0    0    0    0    0    0    0    0    0    0    0    0    0    0    0    0    0    0    0    0    0   29   13   45    5   -1   34   32   17    7   24   31   -1    0   -1   24   -1   21   44   -1   -1   22   23   35   21   44 
   0    0    0    0    0    0    0    0    0    0    0    0    0    0    0    0    0    0    0    0    0    0    0    0    0    0   -1   -1    1   -1   -1   29   -1   47   30   -1    7   -1   16   -1   -1   45   -1   40   -1   -1   -1   -1   -1   20 
   0    0    0    0    0    0    0    0    0    0    0    0    0    0    0    0    0    0    0    0    0    0    0    0    0    0    0   33   40   -1   -1    7   -1   28   -1   13   19   13   35   26   -1   -1   32   -1   25   -1   45   -1   -1   -1 
   0    0    0    0    0    0    0    0    0    0    0    0    0    0    0    0    0    0    0    0    0    0    0    0    0    0    0    0   36   -1   -1   -1   -1   42   13   -1   -1   47   38   38   23   47   10   -1   -1   -1   -1    6   -1   42 
   0    0    0    0    0    0    0    0    0    0    0    0    0    0    0    0    0    0    0    0    0    0    0    0    0    0    0    0    0   -1   -1   36   31   21   -1   -1   -1   49   11   29   -1   -1   25   23   17   28   -1   25   41   -1 
   0    0    0    0    0    0    0    0    0    0    0    0    0    0    0    0    0    0    0    0    0    0    0    0    0    0    0    0    0    0    7   -1   39   -1   23   35   -1   -1   -1   -1   -1   35   26   31   13   -1   -1   13   -1   -1 
   0    0    0    0    0    0    0    0    0    0    0    0    0    0    0    0    0    0    0    0    0    0    0    0    0    0    0    0    0    0    0   -1   -1   44   -1   -1   43    3   13   -1   -1    6   -1   -1   -1   41    0   -1   16   -1 
   0    0    0    0    0    0    0    0    0    0    0    0    0    0    0    0    0    0    0    0    0    0    0    0    0    0    0    0    0    0    0    0   -1   47   39   -1   33   13   -1   -1   39   -1   22   -1    4    1   -1   31   23    1 
   0    0    0    0    0    0    0    0    0    0    0    0    0    0    0    0    0    0    0    0    0    0    0    0    0    0    0    0    0    0    0    0    0   -1   29   -1   -1   35   22   -1   15   -1   37   -1   -1   18   16   -1   -1   -1 
   0    0    0    0    0    0    0    0    0    0    0    0    0    0    0    0    0    0    0    0    0    0    0    0    0    0    0    0    0    0    0    0    0    0   37   -1   24   -1   -1   -1   15   18   -1   -1   27   31   48   -1   34   35 
   0    0    0    0    0    0    0    0    0    0    0    0    0    0    0    0    0    0    0    0    0    0    0    0    0    0    0    0    0    0    0    0    0    0    0   -1   -1    2    4   39   -1   14   -1    5    8   21   -1   -1    5    9 
   0    0    0    0    0    0    0    0    0    0    0    0    0    0    0    0    0    0    0    0    0    0    0    0    0    0    0    0    0    0    0    0    0    0    0    0   -1   -1   -1   -1    8   -1   26   43    4   40   11   -1   18   -1 
   0    0    0    0    0    0    0    0    0    0    0    0    0    0    0    0    0    0    0    0    0    0    0    0    0    0    0    0    0    0    0    0    0    0    0    0    0   -1   40   -1   24   45   20   21   22   -1   -1   28   32   -1 
   0    0    0    0    0    0    0    0    0    0    0    0    0    0    0    0    0    0    0    0    0    0    0    0    0    0    0    0    0    0    0    0    0    0    0    0    0    0    7   36   47   -1   48   -1   17   -1   31   -1   -1   -1 
   0    0    0    0    0    0    0    0    0    0    0    0    0    0    0    0    0    0    0    0    0    0    0    0    0    0    0    0    0    0    0    0    0    0    0    0    0    0    0   34   40   -1   27   -1   -1   44   23   13   -1   42 
   0    0    0    0    0    0    0    0    0    0    0    0    0    0    0    0    0    0    0    0    0    0    0    0    0    0    0    0    0    0    0    0    0    0    0    0    0    0    0    0   -1   48   16   -1   -1   37   -1   10   29   17 
   0    0    0    0    0    0    0    0    0    0    0    0    0    0    0    0    0    0    0    0    0    0    0    0    0    0    0    0    0    0    0    0    0    0    0    0    0    0    0    0    0   37   -1   -1    5   -1   -1   -1   -1   -1 
   0    0    0    0    0    0    0    0    0    0    0    0    0    0    0    0    0    0    0    0    0    0    0    0    0    0    0    0    0    0    0    0    0    0    0    0    0    0    0    0    0    0   15   -1   22    1   -1   10   -1   -1 
   0    0    0    0    0    0    0    0    0    0    0    0    0    0    0    0    0    0    0    0    0    0    0    0    0    0    0    0    0    0    0    0    0    0    0    0    0    0    0    0    0    0    0   49   45   26   -1   -1   -1   -1 
   0    0    0    0    0    0    0    0    0    0    0    0    0    0    0    0    0    0    0    0    0    0    0    0    0    0    0    0    0    0    0    0    0    0    0    0    0    0    0    0    0    0    0    0   -1   -1   31   23   16   27 
   0    0    0    0    0    0    0    0    0    0    0    0    0    0    0    0    0    0    0    0    0    0    0    0    0    0    0    0    0    0    0    0    0    0    0    0    0    0    0    0    0    0    0    0    0   -1   -1   -1    0   10 
   0    0    0    0    0    0    0    0    0    0    0    0    0    0    0    0    0    0    0    0    0    0    0    0    0    0    0    0    0    0    0    0    0    0    0    0    0    0    0    0    0    0    0    0    0    0   -1   -1   21   -1 
   0    0    0    0    0    0    0    0    0    0    0    0    0    0    0    0    0    0    0    0    0    0    0    0    0    0    0    0    0    0    0    0    0    0    0    0    0    0    0    0    0    0    0    0    0    0    0   -1   28   38 
   0    0    0    0    0    0    0    0    0    0    0    0    0    0    0    0    0    0    0    0    0    0    0    0    0    0    0    0    0    0    0    0    0    0    0    0    0    0    0    0    0    0    0    0    0    0    0    0   47   11 
   0    0    0    0    0    0    0    0    0    0    0    0    0    0    0    0    0    0    0    0    0    0    0    0    0    0    0    0    0    0    0    0    0    0    0    0    0    0    0    0    0    0    0    0    0    0    0    0    0   -1 
   0    0    0    0    0    0    0    0    0    0    0    0    0    0    0    0    0    0    0    0    0    0    0    0    0    0    0    0    0    0    0    0    0    0    0    0    0    0    0    0    0    0    0    0    0    0    0    0    0    0 
